//Number of items      		
148
//Bin Capacity      
1000
//Known Best Solution  		
62
//Weight of Item
     795         1
     794         1
     788         1
     786         1
     780         1
     779         1
     776         1
     768         1
     757         1
     751         1
     746         1
     732         1
     729         1
     724         2
     720         1
     712         1
     701         1
     699         1
     692         1
     683         1
     680         1
     676         1
     674         1
     657         1
     656         1
     653         1
     645         1
     644         1
     642         1
     640         1
     639         1
     637         1
     632         1
     624         1
     622         1
     618         1
     616         1
     603         1
     594         1
     593         1
     588         1
     581         1
     580         1
     577         1
     572         1
     566         1
     563         1
     558         1
     550         1
     548         1
     547         1
     545         1
     540         1
     538         1
     512         1
     508         1
     507         1
     502         1
     500         1
     491         1
     485         1
     481         1
     478         2
     472         1
     465         2
     464         1
     451         1
     450         1
     444         1
     439         1
     430         1
     429         1
     428         1
     411         1
     409         2
     384         1
     380         1
     378         1
     372         1
     371         1
     370         1
     354         1
     351         2
     350         2
     338         1
     330         1
     321         1
     314         1
     306         1
     299         1
     285         1
     284         1
     281         1
     280         1
     275         1
     253         1
     248         1
     234         1
     232         2
     215         1
     212         1
     207         1
     199         1
     195         1
     192         1
     187         1
     185         1
     183         1
     176         1
     172         1
     171         1
     170         1
     168         1
     166         1
     165         1
     162         1
     156         2
     153         1
     141         1
     135         1
     126         1
     125         1
     121         1
     115         1
     110         2
     109         1
     103         1
     100         1
      98         1
      96         1
      91         1
      90         1
      83         1
      72         1
      69         1
      56         1
      55         1
      54         1
      52         1
      51         1
      48         2
      37         1
      36         1
      23         2
      21         1
      20         2
      16         1
      12         1